coords = array2d(1..58, 1..2, [133, 249, 875, 437, 848, 825, 572, 759, 454,
    223, 986, 605, 654, 607, 905, 216, 237, 911, 342, 373, 255, 517,
    378, 422, 305, 445, 309, 118, 454, 173, 742, 939, 375, 815, 442,
    65, 524, 782, 183, 81, 546, 573, 559, 476, 923, 465, 492, 34, 468,
    698, 217, 210, 718, 601, 877, 313, 662, 832, 490, 898, 805, 466,
    297, 536, 53, 871, 247, 220, 541, 842, 136, 968, 649, 34, 601,
    376, 394, 471, 634, 664, 531, 78, 25, 232, 705, 212, 144, 806,
    415, 360, 425, 460, 636, 243, 371, 226, 635, 696, 945, 844, 948,
    284, 830, 82, 527, 805, 891, 331, 965, 142, 654, 765, 825, 743,
    136, 943]);

n = 58;

